500 22315 13_500_1000_3209
1 248 168
2 558 378
3 160 140
4 1120 980
5 1120 980
6 124 84
7 1440 1260
8 1280 1120
9 372 252
10 124 84
11 248 168
12 62 42
13 800 700
14 800 700
15 248 168
16 1280 1120
17 248 168
18 1120 980
19 320 280
20 1440 1260
21 320 280
22 800 700
23 800 700
24 960 840
25 62 42
26 1280 1120
27 1280 1120
28 1600 1400
29 480 420
30 1280 1120
31 1280 1120
32 62 42
33 310 210
34 496 336
35 186 126
36 372 252
37 1280 1120
38 372 252
39 496 336
40 248 168
41 1280 1120
42 1600 1400
43 620 420
44 320 280
45 310 210
46 1440 1260
47 800 700
48 1280 1120
49 1440 1260
50 620 420
51 1280 1120
52 372 252
53 480 420
54 310 210
55 160 140
56 1440 1260
57 1280 1120
58 960 840
59 1280 1120
60 248 168
61 558 378
62 434 294
63 1280 1120
64 1440 1260
65 496 336
66 496 336
67 372 252
68 248 168
69 160 140
70 1600 1400
71 248 168
72 620 420
73 496 336
74 310 210
75 160 140
76 62 42
77 800 700
78 1120 980
79 124 84
80 480 420
81 960 840
82 320 280
83 434 294
84 186 126
85 496 336
86 186 126
87 960 840
88 620 420
89 372 252
90 960 840
91 496 336
92 480 420
93 160 140
94 372 252
95 1440 1260
96 62 42
97 124 84
98 480 420
99 496 336
100 434 294
101 640 560
102 320 280
103 124 84
104 960 840
105 1120 980
106 1120 980
107 496 336
108 124 84
109 160 140
110 1600 1400
111 480 420
112 186 126
113 186 126
114 434 294
115 1280 1120
116 960 840
117 124 84
118 558 378
119 640 560
120 160 140
121 434 294
122 960 840
123 800 700
124 640 560
125 320 280
126 1440 1260
127 124 84
128 1280 1120
129 1600 1400
130 1120 980
131 960 840
132 620 420
133 372 252
134 320 280
135 248 168
136 372 252
137 620 420
138 1120 980
139 640 560
140 320 280
141 186 126
142 640 560
143 480 420
144 320 280
145 800 700
146 1280 1120
147 434 294
148 1440 1260
149 1600 1400
150 800 700
151 640 560
152 558 378
153 640 560
154 640 560
155 620 420
156 160 140
157 960 840
158 62 42
159 558 378
160 1440 1260
161 1440 1260
162 558 378
163 62 42
164 434 294
165 186 126
166 1600 1400
167 248 168
168 496 336
169 320 280
170 640 560
171 186 126
172 62 42
173 640 560
174 434 294
175 186 126
176 186 126
177 620 420
178 558 378
179 1440 1260
180 160 140
181 640 560
182 124 84
183 558 378
184 124 84
185 620 420
186 496 336
187 310 210
188 800 700
189 310 210
190 124 84
191 124 84
192 1280 1120
193 496 336
194 800 700
195 1440 1260
196 1600 1400
197 372 252
198 124 84
199 480 420
200 320 280
201 1120 980
202 1440 1260
203 160 140
204 186 126
205 1600 1400
206 800 700
207 124 84
208 372 252
209 160 140
210 320 280
211 1120 980
212 320 280
213 310 210
214 960 840
215 434 294
216 310 210
217 960 840
218 320 280
219 310 210
220 1120 980
221 310 210
222 248 168
223 1280 1120
224 320 280
225 620 420
226 1120 980
227 434 294
228 1120 980
229 434 294
230 1600 1400
231 800 700
232 186 126
233 496 336
234 1600 1400
235 310 210
236 248 168
237 960 840
238 1120 980
239 310 210
240 1120 980
241 496 336
242 372 252
243 1120 980
244 960 840
245 1440 1260
246 320 280
247 320 280
248 558 378
249 434 294
250 186 126
251 1120 980
252 310 210
253 372 252
254 800 700
255 640 560
256 1440 1260
257 1600 1400
258 620 420
259 248 168
260 248 168
261 310 210
262 1280 1120
263 1120 980
264 434 294
265 310 210
266 160 140
267 1600 1400
268 160 140
269 372 252
270 124 84
271 310 210
272 640 560
273 496 336
274 480 420
275 496 336
276 310 210
277 496 336
278 248 168
279 480 420
280 800 700
281 960 840
282 800 700
283 480 420
284 248 168
285 620 420
286 434 294
287 640 560
288 186 126
289 310 210
290 620 420
291 1280 1120
292 186 126
293 320 280
294 640 560
295 160 140
296 480 420
297 248 168
298 960 840
299 62 42
300 372 252
301 248 168
302 800 700
303 620 420
304 124 84
305 1440 1260
306 1120 980
307 320 280
308 800 700
309 620 420
310 1440 1260
311 800 700
312 640 560
313 372 252
314 496 336
315 1440 1260
316 558 378
317 186 126
318 124 84
319 620 420
320 160 140
321 320 280
322 1440 1260
323 1120 980
324 640 560
325 320 280
326 620 420
327 160 140
328 640 560
329 372 252
330 640 560
331 372 252
332 1600 1400
333 372 252
334 372 252
335 620 420
336 434 294
337 434 294
338 620 420
339 310 210
340 558 378
341 248 168
342 496 336
343 248 168
344 960 840
345 62 42
346 160 140
347 620 420
348 640 560
349 186 126
350 372 252
351 1600 1400
352 372 252
353 248 168
354 124 84
355 248 168
356 640 560
357 800 700
358 320 280
359 960 840
360 1440 1260
361 62 42
362 160 140
363 480 420
364 372 252
365 124 84
366 620 420
367 480 420
368 640 560
369 160 140
370 1440 1260
371 496 336
372 1120 980
373 620 420
374 558 378
375 124 84
376 1600 1400
377 960 840
378 960 840
379 310 210
380 186 126
381 496 336
382 480 420
383 186 126
384 620 420
385 1280 1120
386 160 140
387 1280 1120
388 558 378
389 1440 1260
390 1280 1120
391 800 700
392 62 42
393 434 294
394 434 294
395 480 420
396 160 140
397 248 168
398 1600 1400
399 160 140
400 620 420
401 310 210
402 62 42
403 960 840
404 62 42
405 1120 980
406 160 140
407 480 420
408 558 378
409 800 700
410 1280 1120
411 1600 1400
412 372 252
413 1600 1400
414 62 42
415 960 840
416 480 420
417 372 252
418 320 280
419 1440 1260
420 434 294
421 1280 1120
422 1280 1120
423 640 560
424 496 336
425 310 210
426 480 420
427 160 140
428 496 336
429 434 294
430 62 42
431 620 420
432 372 252
433 558 378
434 434 294
435 248 168
436 62 42
437 800 700
438 1120 980
439 640 560
440 1440 1260
441 186 126
442 1440 1260
443 496 336
444 558 378
445 480 420
446 372 252
447 160 140
448 1120 980
449 62 42
450 124 84
451 800 700
452 960 840
453 124 84
454 480 420
455 1440 1260
456 62 42
457 372 252
458 310 210
459 558 378
460 800 700
461 310 210
462 62 42
463 640 560
464 620 420
465 1600 1400
466 160 140
467 496 336
468 62 42
469 434 294
470 1280 1120
471 496 336
472 434 294
473 248 168
474 310 210
475 640 560
476 186 126
477 320 280
478 1280 1120
479 248 168
480 62 42
481 480 420
482 1120 980
483 800 700
484 640 560
485 62 42
486 558 378
487 558 378
488 62 42
489 558 378
490 434 294
491 480 420
492 558 378
493 160 140
494 496 336
495 620 420
496 62 42
497 1120 980
498 372 252
499 640 560
500 496 336
